DATASET = "thpack6";
INSTANCE = "039";

WIDTH = 233;
HEIGHT = 220;
LENGTH = 587;

NO_OF_SHAPES = 15;
size = [|
  89,56,45 |
  53,37,34 |
  54,35,25 |
  73,39,33 |
  73,39,38 |
  50,42,29 |
  62,59,54 |
  98,53,44 |
  94,32,31 |
  97,64,28 |
  102,77,42 |
  80,75,44 |
  93,52,41 |
  77,51,38 |
  57,54,52 |
|];

verticality = [|
  1,1,1 |
  1,1,1 |
  0,1,1 |
  0,1,1 |
  1,1,1 |
  1,1,1 |
  1,1,1 |
  0,1,1 |
  0,1,1 |
  0,0,1 |
  0,1,1 |
  1,1,1 |
  0,1,1 |
  0,1,1 |
  1,1,1 |
|];

box_count = [
  16,
  11,
  12,
  11,
  19,
  7,
  13,
  13,
  7,
  14,
  10,
  11,
  16,
  10,
  13,
];
